/* Objective Function */
// I am only use one objective here, which is to maximize programming skills
// We could use all characteristics here, if needed

max: 1 X11 + 1 X21 + 1 X31 + 3 X41 + 3 X51 + 1 X61 + 1 X71 + 1 X81 + 1 X91 + 1 X101 + 5 X111 + 1 X121 + 1 X131 + 1 X141 + 3 X151 + 3 X161 + 3 X171 + 2 X181 + 1 X191 + 3 X201 + 2 X211 + 1 X12 + 1 X22 + 1 X32 + 3 X42 + 3 X52 + 1 X62 + 1 X72 + 1 X82 + 1 X92 + 1 X102 + 5 X112 + 1 X122 + 1 X132 + 1 X142 + 3 X152 + 3 X162 + 3 X172 + 2 X182 + 1 X192 + 3 X202 + 2 X212 + 1 X13 + 1 X23 + 1 X33 + 3 X43 + 3 X53 + 1 X63 + 1 X73 + 1 X83 + 1 X93 + 1 X103 + 5 X113 + 1 X123 + 1 X133 + 1 X143 + 3 X153 + 3 X163 + 3 X173 + 2 X183 + 1 X193 + 3 X203 + 2 X213 + 1 X14 + 1 X24 + 1 X34 + 3 X44 + 3 X54 + 1 X64 + 1 X74 + 1 X84 + 1 X94 + 1 X104 + 5 X114 + 1 X124 + 1 X134 + 1 X144 + 3 X154 + 3 X164 + 3 X174 + 2 X184 + 1 X194 + 3 X204 + 2 X214  + 1 X15 + 1 X25 + 1 X35 + 3 X45 + 3 X55 + 1 X65 + 1 X75 + 1 X85 + 1 X95 + 1 X105 + 5 X115 + 1 X125 + 1 X135 + 1 X145 + 3 X155 + 3 X165 + 3 X175 + 2 X185 + 1 X195 + 3 X205 + 2 X215  + 1 X16 + 1 X26 + 1 X36 + 3 X46 + 3 X56 + 1 X66 + 1 X76 + 1 X86 + 1 X96 + 1 X106 + 5 X116 + 1 X126 + 1 X136 + 1 X146 + 3 X156 + 3 X166 + 3 X176 + 2 X186 + 1 X196 + 3 X206 + 2 X216  + 1 X17 + 1 X27 + 1 X37 + 3 X47 + 3 X57 + 1 X67 + 1 X77 + 1 X87 + 1 X97 + 1 X107 + 5 X117 + 1 X127 + 1 X137 + 1 X147 + 3 X157 + 3 X167 + 3 X177 + 2 X187 + 1 X197 + 3 X207 + 2 X217;

/* Constraints */
// Each student should belong to only one group

X11  +  X12  +  X13  +  X14  +  X15  +  X16  +  X17  =  1;
X21  +  X22  +  X23  +  X24  +  X25  +  X26  +  X27  =  1;
X31  +  X32  +  X33  +  X34  +  X35  +  X36  +  X37  =  1;
X41  +  X42  +  X43  +  X44  +  X45  +  X46  +  X47  =  1;
X51  +  X52  +  X53  +  X54  +  X55  +  X56  +  X57  =  1;
X61  +  X62  +  X63  +  X64  +  X65  +  X66  +  X67  =  1;
X71  +  X72  +  X73  +  X74  +  X75  +  X76  +  X77  =  1;
X81  +  X82  +  X83  +  X84  +  X85  +  X86  +  X87  =  1;
X91  +  X92  +  X93  +  X94  +  X95  +  X96  +  X97  =  1;
X101  +  X102  +  X103  +  X104  +  X105  +  X106  +  X107  =  1;
X111  +  X112  +  X113  +  X114  +  X115  +  X116  +  X117  =  1;
X121  +  X122  +  X123  +  X124  +  X125  +  X126  +  X127  =  1;
X131  +  X132  +  X133  +  X134  +  X135  +  X136  +  X137  =  1;
X141  +  X142  +  X143  +  X144  +  X145  +  X146  +  X147  =  1;
X151  +  X152  +  X153  +  X154  +  X155  +  X156  +  X157  =  1;
X161  +  X162  +  X163  +  X164  +  X165  +  X166  +  X167  =  1;
X171  +  X172  +  X173  +  X174  +  X175  +  X176  +  X177  =  1;
X181  +  X182  +  X183  +  X184  +  X185  +  X186  +  X187  =  1;
X191  +  X192  +  X193  +  X194  +  X195  +  X196  +  X197  =  1;
X201  +  X202  +  X203  +  X204  +  X205  +  X206  +  X207  =  1;
X211  +  X212  +  X213  +  X214  +  X215  +  X216  +  X217  =  1;

// Each group must contain three students

X11 + X21 + X31 + X41 + X51 + X61 + X71 + X81 + X91 + X101 + X111 + X121 + X131 + X141 + X151 + X161 + X171 + X181 + X191 + X201 + X211 = 3;
X12 + X22 + X32 + X42 + X52 + X62 + X72 + X82 + X92 + X102 + X112 + X122 + X132 + X142 + X152 + X162 + X172 + X182 + X192 + X202 + X212 = 3;
X13 + X23 + X33 + X43 + X53 + X63 + X73 + X83 + X93 + X103 + X113 + X123 + X133 + X143 + X153 + X163 + X173 + X183 + X193 + X203 + X213 = 3;
X14 + X24 + X34 + X44 + X54 + X64 + X74 + X84 + X94 + X104 + X114 + X124 + X134 + X144 + X154 + X164 + X174 + X184 + X194 + X204 + X214 = 3;
X15 + X25 + X35 + X45 + X55 + X65 + X75 + X85 + X95 + X105 + X115 + X125 + X135 + X145 + X155 + X165 + X175 + X185 + X195 + X205 + X215 = 3;
X16 + X26 + X36 + X46 + X56 + X66 + X76 + X86 + X96 + X106 + X116 + X126 + X136 + X146 + X156 + X166 + X176 + X186 + X196 + X206 + X216 = 3;
X17 + X27 + X37 + X47 + X57 + X67 + X77 + X87 + X97 + X107 + X117 + X127 + X137 + X147 + X157 + X167 + X177 + X187 + X197 + X207 + X217 = 3;

// How much programming experience is in every group. It should be greater
// than some value. Here, I have 5 from experimentation

1 X11 + 1 X21 + 1 X31 + 3 X41 + 3 X51 + 1 X61 + 1 X71 + 1 X81 + 1 X91 + 1 X101 + 5 X111 + 1 X121 + 1 X131 + 1 X141 + 3 X151 + 3 X161 + 3 X171 + 2 X181 + 1 X191 + 3 X201 + 2 X211 >= 5;
1 X12 + 1 X22 + 1 X32 + 3 X42 + 3 X52 + 1 X62 + 1 X72 + 1 X82 + 1 X92 + 1 X102 + 5 X112 + 1 X122 + 1 X132 + 1 X142 + 3 X152 + 3 X162 + 3 X172 + 2 X182 + 1 X192 + 3 X202 + 2 X212 >= 5;
1 X13 + 1 X23 + 1 X33 + 3 X43 + 3 X53 + 1 X63 + 1 X73 + 1 X83 + 1 X93 + 1 X103 + 5 X113 + 1 X123 + 1 X133 + 1 X143 + 3 X153 + 3 X163 + 3 X173 + 2 X183 + 1 X193 + 3 X203 + 2 X213 >= 5;
1 X14 + 1 X24 + 1 X34 + 3 X44 + 3 X54 + 1 X64 + 1 X74 + 1 X84 + 1 X94 + 1 X104 + 5 X114 + 1 X124 + 1 X134 + 1 X144 + 3 X154 + 3 X164 + 3 X174 + 2 X184 + 1 X194 + 3 X204 + 2 X214 >= 5;
1 X15 + 1 X25 + 1 X35 + 3 X45 + 3 X55 + 1 X65 + 1 X75 + 1 X85 + 1 X95 + 1 X105 + 5 X115 + 1 X125 + 1 X135 + 1 X145 + 3 X155 + 3 X165 + 3 X175 + 2 X185 + 1 X195 + 3 X205 + 2 X215 >= 5;
1 X16 + 1 X26 + 1 X36 + 3 X46 + 3 X56 + 1 X66 + 1 X76 + 1 X86 + 1 X96 + 1 X106 + 5 X116 + 1 X126 + 1 X136 + 1 X146 + 3 X156 + 3 X166 + 3 X176 + 2 X186 + 1 X196 + 3 X206 + 2 X216 >= 5;
1 X17 + 1 X27 + 1 X37 + 3 X47 + 3 X57 + 1 X67 + 1 X77 + 1 X87 + 1 X97 + 1 X107 + 5 X117 + 1 X127 + 1 X137 + 1 X147 + 3 X157 + 3 X167 + 3 X177 + 2 X187 + 1 X197 + 3 X207 + 2 X217 >= 5;

// How much comfort level you have in public speaking
// Again, I set the values based on experimentation

4 X11 + 3 X21 + 4 X31 + 3 X41 + 4 X51 + 5 X61 + 5 X71 + 3 X81 + 4 X91 + 3 X101 + 5 X111 + 5 X121 + 3 X131 + 4 X141 + 4 X151 + 5 X161 + 3 X171 + 4 X181 + 4 X191 + 5 X201 + 4 X211 >= 12;
4 X12 + 3 X22 + 4 X32 + 3 X42 + 4 X52 + 5 X62 + 5 X72 + 3 X82 + 4 X92 + 3 X102 + 5 X112 + 5 X122 + 3 X132 + 4 X142 + 4 X152 + 5 X162 + 3 X172 + 4 X182 + 4 X192 + 5 X202 + 4 X212 >= 12;
4 X13 + 3 X23 + 4 X33 + 3 X43 + 4 X53 + 5 X63 + 5 X73 + 3 X83 + 4 X93 + 3 X103 + 5 X113 + 5 X123 + 3 X133 + 4 X143 + 4 X153 + 5 X163 + 3 X173 + 4 X183 + 4 X193 + 5 X203 + 4 X213 >= 12;
4 X14 + 3 X24 + 4 X34 + 3 X44 + 4 X54 + 5 X64 + 5 X74 + 3 X84 + 4 X94 + 3 X104 + 5 X114 + 5 X124 + 3 X134 + 4 X144 + 4 X154 + 5 X164 + 3 X174 + 4 X184 + 4 X194 + 5 X204 + 4 X214 >= 12;
4 X15 + 3 X25 + 4 X35 + 3 X45 + 4 X55 + 5 X65 + 5 X75 + 3 X85 + 4 X95 + 3 X105 + 5 X115 + 5 X125 + 3 X135 + 4 X145 + 4 X155 + 5 X165 + 3 X175 + 4 X185 + 4 X195 + 5 X205 + 4 X215 >= 12;
4 X16 + 3 X26 + 4 X36 + 3 X46 + 4 X56 + 5 X66 + 5 X76 + 3 X86 + 4 X96 + 3 X106 + 5 X116 + 5 X126 + 3 X136 + 4 X146 + 4 X156 + 5 X166 + 3 X176 + 4 X186 + 4 X196 + 5 X206 + 4 X216 >= 12;
4 X17 + 3 X27 + 4 X37 + 3 X47 + 4 X57 + 5 X67 + 5 X77 + 3 X87 + 4 X97 + 3 X107 + 5 X117 + 5 X127 + 3 X137 + 4 X147 + 4 X157 + 5 X167 + 3 X177 + 4 X187 + 4 X197 + 5 X207 + 4 X217 >= 12;

// This is for years of experience

5.5 X11 + 0 X21 + 3.5 X31 + 0 X41 + 1.5 X51 + 5.5 X61 + 7 X71 + 0 X81 + 3.5 X91 + 0 X101 + 9 X111 + 1.5 X121 + 0 X131 + 0 X141 + 5.5 X151 + 1.5 X161 + 0 X171 + 3.5 X181 + 1.5 X191 + 7 X201 + 1.5 X211 >=  7;
5.5 X12 + 0 X22 + 3.5 X32 + 0 X42 + 1.5 X52 + 5.5 X62 + 7 X72 + 0 X82 + 3.5 X92 + 0 X102 + 9 X112 + 1.5 X122 + 0 X132 + 0 X142 + 5.5 X152 + 1.5 X162 + 0 X172 + 3.5 X182 + 1.5 X192 + 7 X202 + 1.5 X212 >=  7;
5.5 X13 + 0 X23 + 3.5 X33 + 0 X43 + 1.5 X53 + 5.5 X63 + 7 X73 + 0 X83 + 3.5 X93 + 0 X103 + 9 X113 + 1.5 X123 + 0 X133 + 0 X143 + 5.5 X153 + 1.5 X163 + 0 X173 + 3.5 X183 + 1.5 X193 + 7 X203 + 1.5 X213 >=  7;
5.5 X14 + 0 X24 + 3.5 X34 + 0 X44 + 1.5 X54 + 5.5 X64 + 7 X74 + 0 X84 + 3.5 X94 + 0 X104 + 9 X114 + 1.5 X124 + 0 X134 + 0 X144 + 5.5 X154 + 1.5 X164 + 0 X174 + 3.5 X184 + 1.5 X194 + 7 X204 + 1.5 X214 >=  7;
5.5 X15 + 0 X25 + 3.5 X35 + 0 X45 + 1.5 X55 + 5.5 X65 + 7 X75 + 0 X85 + 3.5 X95 + 0 X105 + 9 X115 + 1.5 X125 + 0 X135 + 0 X145 + 5.5 X155 + 1.5 X165 + 0 X175 + 3.5 X185 + 1.5 X195 + 7 X205 + 1.5 X215 >=  7;
5.5 X16 + 0 X26 + 3.5 X36 + 0 X46 + 1.5 X56 + 5.5 X66 + 7 X76 + 0 X86 + 3.5 X96 + 0 X106 + 9 X116 + 1.5 X126 + 0 X136 + 0 X146 + 5.5 X156 + 1.5 X166 + 0 X176 + 3.5 X186 + 1.5 X196 + 7 X206 + 1.5 X216 >=  7;
5.5 X17 + 0 X27 + 3.5 X37 + 0 X47 + 1.5 X57 + 5.5 X67 + 7 X77 + 0 X87 + 3.5 X97 + 0 X107 + 9 X117 + 1.5 X127 + 0 X137 + 0 X147 + 5.5 X157 + 1.5 X167 + 0 X177 + 3.5 X187 + 1.5 X197 + 7 X207 + 1.5 X217 >=  7;

// This indicates that all variables are binary

bin X11, X21, X31, X41, X51, X61, X71, X81, X91, X101, X111, X121, X131, X141, X151, X161, X171, X181, X191, X201, X211, X12, X22, X32, X42, X52, X62, X72, X82, X92, X102, X112, X122, X132, X142, X152, X162, X172, X182, X192, X202, X212, X13, X23, X33, X43, X53, X63, X73, X83, X93, X103, X113, X123, X133, X143, X153, X163, X173, X183, X193, X203, X213, X14, X24, X34, X44, X54, X64, X74, X84, X94, X104, X114, X124, X134, X144, X154, X164, X174, X184, X194, X204, X214, X15, X25, X35, X45, X55, X65, X75, X85, X95, X105, X115, X125, X135, X145, X155, X165, X175, X185, X195, X205, X215, X16, X26, X36, X46, X56, X66, X76, X86, X96, X106, X116, X126, X136, X146, X156, X166, X176, X186, X196, X206, X216, X17, X27, X37, X47, X57, X67, X77, X87, X97, X107, X117, X127, X137, X147, X157, X167, X177, X187, X197, X207, X217; 
